0 0 2 0
1 0 1 0
5 0 1 8
0 1 0 1
3 0 1 11
0 2 1 16
2 0 2 1
1 1 2 8
3 1 0 16
4 0 2 13
3 2 2 22
2 1 3 6
2 2 5 10
4 1 1 22
5 1 3 11
2 3 0 21
5 2 5 18
1 2 4 13
3 3 3 27
5 3 0 30
1 3 5 27
4 2 4 25
3 4 4 30
0 3 3 30
0 4 5 37
1 4 0 40
4 3 5 40
2 4 1 30
2 5 4 38
3 5 5 44
1 5 3 50
5 4 4 45
4 4 0 50
5 5 2 49
4 5 3 54
0 5 4 49

